DIMENSION :7
NODE_COORD_SECTION
1 62.86311688245297 60.46689049710625
2 72.53836020772161 -78.10096324162934
3 -86.91865855869621 -49.07453978974037
4 17.18809437015682 -87.85901960079563
5 78.12143431696325 24.334297282364204
6 -55.511859474596335 47.54711540315566
7 -51.895680192969905 -56.13175502738057
EOF
